param m := 7;

set S := "A" "B" "C" "D";

param req := 
A 2
B 2
C 3
D 2;

param comp : A B C D :=
1   0 0 1 0
2   1 0 0 1
3   0 1 1 1
4   1 0 1 1
5   0 1 0 1
6   0 1 1 1
7   0 0 1 0;

param: C: a: 1 2 3 4 5 6 7:=
1 . 1 2 5 3 2 9
2 3 . 3 9 7 1 2
3 7 9 . 5 9 1 2
4 6 9 9 . 8 1 2
5 . 1 . 8 . 4 8
6 1 . 7 6 8 . 10
7 5 3 10 7 10 8 .
;
